505,164
586,219
621,406
586,219
681,166
713,199
789,193
801,406
766,433
694,432
633,441
441,406
444,443
633,441
1131,406
1020,160
699,524
681,706
839,624
385,452
196,563
196,249
267,341
441,406
444,443
494,501
477,806
699,524
694,432
699,349
681,-14
789,193
839,188
681,166
505,164
441,284
267,341
494,501
552,805
857,648
935,660
1131,406
831,406
850,283
787,460
766,433
769,392
699,349
850,283
893,618
857,648
831,406
